p cnf 134 295
1 -2 0
2 -1 0
2 3 0
4 3 0
5 3 0
-2 -4 -5 -3 0
-6 3 -7 0
6 -3 -7 0
7 -3 -6 0
6 3 7 0
-7 0
2 8 0
5 8 0
-2 -5 -8 0
8 -9 -10 0
9 -8 -10 0
10 -8 -9 0
9 8 10 0
-10 0
11 12 0
13 12 0
14 12 0
-11 -13 -14 -12 0
-15 12 -16 0
15 -12 -16 0
16 -12 -15 0
15 12 16 0
-16 0
12 -17 -18 0
17 -12 -18 0
18 -12 -17 0
17 12 18 0
-18 0
12 -19 -20 0
19 -12 -20 0
20 -12 -19 0
19 12 20 0
-20 0
11 21 0
13 21 0
14 21 0
22 21 0
-11 -13 -14 -22 -21 0
-23 21 -24 0
23 -21 -24 0
24 -21 -23 0
23 21 24 0
-24 0
25 26 0
27 26 0
28 26 0
29 26 0
-30 0
-31 26 -32 0
31 -26 -32 0
32 -26 -31 0
31 26 32 0
-32 0
27 33 0
28 33 0
29 33 0
-27 -28 -29 -33 0
33 -34 -35 0
34 -33 -35 0
35 -33 -34 0
34 33 35 0
-35 0
28 36 0
29 36 0
-28 -29 -36 0
36 -37 -38 0
37 -36 -38 0
38 -36 -37 0
37 36 38 0
-38 0
29 39 0
28 39 0
-28 -29 -39 0
39 -40 -41 0
40 -39 -41 0
41 -39 -40 0
40 39 41 0
-41 0
42 43 0
44 43 0
45 43 0
46 43 0
47 43 0
48 43 0
49 43 0
50 43 0
-51 0
-52 43 -53 0
52 -43 -53 0
53 -43 -52 0
52 43 53 0
-53 0
44 54 0
45 54 0
46 54 0
47 54 0
48 54 0
49 54 0
50 54 0
-55 0
54 -56 -57 0
56 -54 -57 0
57 -54 -56 0
56 54 57 0
-57 0
45 58 0
46 58 0
47 58 0
48 58 0
49 58 0
50 58 0
-59 0
58 -60 -61 0
60 -58 -61 0
61 -58 -60 0
60 58 61 0
-61 0
46 62 0
47 62 0
48 62 0
49 62 0
50 62 0
-63 0
62 -64 -65 0
64 -62 -65 0
65 -62 -64 0
64 62 65 0
-65 0
47 66 0
48 66 0
49 66 0
50 66 0
-67 0
66 -68 -69 0
68 -66 -69 0
69 -66 -68 0
68 66 69 0
-69 0
66 -70 -71 0
70 -66 -71 0
71 -66 -70 0
70 66 71 0
-71 0
66 -72 -73 0
72 -66 -73 0
73 -66 -72 0
72 66 73 0
-73 0
66 -74 -75 0
74 -66 -75 0
75 -66 -74 0
74 66 75 0
-75 0
47 76 0
48 76 0
49 76 0
50 76 0
77 76 0
78 76 0
-79 0
-80 76 -81 0
80 -76 -81 0
81 -76 -80 0
80 76 81 0
-81 0
47 82 0
48 82 0
49 82 0
50 82 0
78 82 0
-83 0
82 -84 -85 0
84 -82 -85 0
85 -82 -84 0
84 82 85 0
-85 0
86 87 0
88 87 0
89 87 0
90 87 0
91 87 0
92 87 0
93 87 0
-94 0
-95 87 -96 0
95 -87 -96 0
96 -87 -95 0
95 87 96 0
-96 0
88 97 0
89 97 0
90 97 0
91 97 0
92 97 0
93 97 0
-98 0
97 -99 -100 0
99 -97 -100 0
100 -97 -99 0
99 97 100 0
-100 0
89 101 0
90 101 0
91 101 0
92 101 0
93 101 0
-102 0
101 -103 -104 0
103 -101 -104 0
104 -101 -103 0
103 101 104 0
-104 0
90 105 0
91 105 0
92 105 0
93 105 0
-106 0
105 -107 -108 0
107 -105 -108 0
108 -105 -107 0
107 105 108 0
-108 0
105 -109 -110 0
109 -105 -110 0
110 -105 -109 0
109 105 110 0
-110 0
105 -111 -112 0
111 -105 -112 0
112 -105 -111 0
111 105 112 0
-112 0
105 -113 -114 0
113 -105 -114 0
114 -105 -113 0
113 105 114 0
-114 0
115 116 0
117 116 0
-115 -117 -116 0
-118 116 -119 0
118 -116 -119 0
119 -116 -118 0
118 116 119 0
-119 0
120 -117 0
117 -120 0
47 121 0
48 121 0
49 121 0
50 121 0
77 121 0
78 121 0
122 121 0
-123 0
-124 121 -125 0
124 -121 -125 0
125 -121 -124 0
124 121 125 0
-125 0
115 126 0
117 126 0
127 126 0
128 126 0
-129 0
-130 126 -131 0
130 -126 -131 0
131 -126 -130 0
130 126 131 0
-131 0
115 132 0
117 132 0
128 132 0
-115 -117 -128 -132 0
132 -133 -134 0
133 -132 -134 0
134 -132 -133 0
133 132 134 0
-134 0
1 0
-6 0
-15 0
-23 0
-31 0
-52 0
-80 0
-95 0
-118 0
-124 0
-130 0
